90

6
7
9
5
5
7
4
10
7
1
5
2
2
2
2
6
5
5
9
8
5
9
5
3
8
10
5
7
9
6
9
2
7
6
3
3
9
2
8
3
2
3
6
7
4
2
1
9
9
5
9
5
10
10
7
6
3
1
6
7
1
1
4
2
5
6
7
1
2
9
1
4
3
4
8
4
10
6
10
2
2
3
9
5
8
2
8
6
3
10
4
5
10
2
10
1
10
8
2
6

6
7
9
5
5
7
4
10
7
1
5
2
2
2
2
6
5
5
9
8
5
9
5
3
8
10
5
7
9
6
9
2
7
6
3
3
9
2
8
3
2
3
6
7
4
2
1
9
9
5
9
5
10
10
7
6
3
1
6
7
1
1
4
2
5
6
7
1
2
9
1
4
3
4
8
4
10
6
10
2
2
3
9
5
8
2
8
6
3
10
4
5
10
2
10
1
10
8
2
6

1478